
  22    4
  10   10   10   10

   0   0   0   0   0   3 2 4 7 
   7  10  10  10  10   2 6 3 
   1  10  10  10  10   2 11 5 
   7  10  10  10  10   3 11 9 8 
  10  10  10  10  10   3 12 10 8 
   1  10  10  10  10   3 12 10 8 
   4  10  10  10  10   3 12 10 9 
   1  10  10  10  10   3 17 14 13 
  10  10  10  10  10   2 17 13 
   3  10  10  10  10   1 13 
   4  10  10  10  10   1 12 
   5  10  10  10  10   4 21 20 17 16 
   4  10  10  10  10   3 21 16 15 
   4  10  10  10  10   2 16 15 
   8  10  10  10  10   3 20 19 18 
   2  10  10  10  10   2 19 18 
   4  10  10  10  10   2 19 18 
   7  10  10  10  10   1 22
   9  10  10  10  10   1 22
   7  10  10  10  10   1 22
   7  10  10  10  10   1 22
   0   0   0   0   0   0 
